(set-info :smt-lib-version 2.6)
(set-logic UF)
(set-info :source |Benchmarks from the paper: "Extending Sledgehammer with SMT Solvers" by Jasmin Blanchette, Sascha Bohme, and Lawrence C. Paulson, CADE 2011.  Translated to SMT2 by Andrew Reynolds and Morgan Deters.|)
(set-info :category "industrial")
(set-info :status sat)
(declare-sort S1 0)
(declare-sort S2 0)
(declare-sort S3 0)
(declare-sort S4 0)
(declare-sort S5 0)
(declare-sort S6 0)
(declare-sort S7 0)
(declare-sort S8 0)
(declare-fun f1 () S1)
(declare-fun f2 () S1)
(declare-fun f3 (S2 S2) S1)
(declare-fun f4 (S3 S4) S2)
(declare-fun f5 (S5 S2) S3)
(declare-fun f6 () S5)
(declare-fun f7 () S2)
(declare-fun f8 (S6 S2) S4)
(declare-fun f9 () S6)
(declare-fun f10 (S7 S2) S2)
(declare-fun f11 () S7)
(declare-fun f12 () S7)
(declare-fun f13 () S2)
(declare-fun f14 (S8 S2) S7)
(declare-fun f15 () S8)
(declare-fun f16 () S8)
(declare-fun f17 () S8)
(declare-fun f18 () S7)
(declare-fun f19 () S2)
(declare-fun f20 () S2)
(declare-fun f21 () S2)
(declare-fun f22 (S2 S2) S1)
(declare-fun f23 (S2 S2 S2) S1)
(declare-fun f24 () S2)
(declare-fun f25 () S2)
(declare-fun f26 (S2) S1)
(declare-fun f27 () S2)
(declare-fun f28 (S2 S2) S1)
(declare-fun f29 () S8)
(declare-fun f30 (S2) S1)
(assert (not (= f1 f2)))
(assert (let ((?v_0 (f10 f11 (f10 f12 f13)))) (let ((?v_1 (f8 f9 ?v_0))) (not (= (f3 (f4 (f5 f6 f7) ?v_1) (f4 (f5 f6 (f10 (f14 f15 (f10 (f14 f16 (f10 (f14 f17 (f10 f18 (f10 f11 ?v_0))) f19)) f20)) f20)) ?v_1)) f1)))))
(assert (let ((?v_0 (f10 (f14 f16 (f10 (f14 f17 (f10 f18 (f10 f11 (f10 f11 (f10 f12 f13))))) f19)) f20))) (and (= (f3 f21 f7) f1) (and (= (f22 f7 ?v_0) f1) (= (f23 f24 f7 ?v_0) f1)))))
(assert (= (f3 f7 (f10 (f14 f15 (f10 (f14 f16 (f10 (f14 f17 (f10 f18 (f10 f11 (f10 f11 (f10 f12 f13))))) f19)) f20)) f20)) f1))
(assert (= (f3 f7 (f10 (f14 f15 (f10 (f14 f16 (f10 (f14 f17 (f10 f18 (f10 f11 (f10 f11 (f10 f12 f13))))) f19)) f20)) f20)) f1))
(assert (let ((?v_0 (f10 (f14 f16 (f10 (f14 f17 (f10 f18 (f10 f11 (f10 f11 (f10 f12 f13))))) f19)) f20))) (and (= (f3 f21 f7) f1) (and (= (f22 f7 ?v_0) f1) (= (f23 f24 f7 ?v_0) f1)))))
(assert (let ((?v_0 (f10 f11 (f10 f12 f13)))) (= (f10 (f14 f16 (f4 (f5 f6 f7) (f8 f9 ?v_0))) f20) (f10 (f14 f17 (f10 (f14 f16 (f10 (f14 f17 (f10 f18 (f10 f11 ?v_0))) f19)) f20)) f25))))
(assert (let ((?v_1 (f10 f11 (f10 f12 f13)))) (let ((?v_0 (f10 (f14 f16 (f10 (f14 f17 (f10 f18 (f10 f11 ?v_1))) f19)) f20))) (= (f22 (f10 (f14 f17 ?v_0) (f10 (f14 f15 ?v_0) f20)) (f10 (f14 f16 (f4 (f5 f6 f7) (f8 f9 ?v_1))) f20)) f1))))
(assert (=> (forall ((?v0 S2)) (let ((?v_0 (f10 f11 (f10 f12 f13)))) (=> (= (f10 (f14 f16 (f4 (f5 f6 f7) (f8 f9 ?v_0))) f20) (f10 (f14 f17 (f10 (f14 f16 (f10 (f14 f17 (f10 f18 (f10 f11 ?v_0))) f19)) f20)) ?v0)) false))) false))
(assert (not (= (f22 f25 (f10 (f14 f16 (f10 (f14 f17 (f10 f18 (f10 f11 (f10 f11 (f10 f12 f13))))) f19)) f20)) f1)))
(assert (= (f26 (f10 (f14 f16 (f10 (f14 f17 (f10 f18 (f10 f11 (f10 f11 (f10 f12 f13))))) f19)) f20)) f1))
(assert (let ((?v_1 (f10 f11 (f10 f12 f13)))) (let ((?v_0 (f8 f9 ?v_1))) (= (f23 (f4 (f5 f6 f7) ?v_0) (f4 (f5 f6 f24) ?v_0) (f10 (f14 f16 (f10 (f14 f17 (f10 f18 (f10 f11 ?v_1))) f19)) f20)) f1))))
(assert (= (f22 f21 (f10 (f14 f16 (f10 (f14 f17 (f10 f18 (f10 f11 (f10 f11 (f10 f12 f13))))) f19)) f20)) f1))
(assert (let ((?v_0 (f10 f11 (f10 f12 f13)))) (= (f10 (f14 f17 (f10 (f14 f16 (f10 (f14 f17 (f10 f18 (f10 f11 ?v_0))) f19)) f20)) f25) (f10 (f14 f16 (f4 (f5 f6 f7) (f8 f9 ?v_0))) f20))))
(assert (let ((?v_0 (f10 f11 (f10 f12 f13)))) (= (f23 (f4 (f5 f6 f24) (f8 f9 ?v_0)) (f10 f18 f27) (f10 (f14 f16 (f10 (f14 f17 (f10 f18 (f10 f11 ?v_0))) f19)) f20)) f1)))
(assert (forall ((?v0 S2) (?v1 S2)) (let ((?v_1 (f10 f11 (f10 f12 f13)))) (let ((?v_0 (f8 f9 ?v_1))) (= (f4 (f5 f6 (f10 (f14 f15 ?v0) ?v1)) ?v_0) (f10 (f14 f16 (f10 (f14 f15 (f4 (f5 f6 ?v0) ?v_0)) (f10 (f14 f17 (f10 (f14 f17 (f10 f18 ?v_1)) ?v0)) ?v1))) (f4 (f5 f6 ?v1) ?v_0)))))))
(assert (forall ((?v0 S2) (?v1 S2)) (let ((?v_3 (f10 f12 f13))) (let ((?v_5 (f8 f9 (f10 f11 ?v_3))) (?v_1 (f10 f12 ?v_3))) (let ((?v_0 (f8 f9 ?v_1)) (?v_2 (f5 f6 ?v0)) (?v_4 (f14 f17 (f10 f18 ?v_1))) (?v_6 (f5 f6 ?v1))) (= (f4 (f5 f6 (f10 (f14 f15 ?v0) ?v1)) ?v_0) (f10 (f14 f15 (f10 (f14 f16 (f10 (f14 f15 (f4 ?v_2 ?v_0)) (f10 (f14 f17 (f10 ?v_4 (f4 ?v_2 ?v_5))) ?v1))) (f10 (f14 f17 (f10 ?v_4 ?v0)) (f4 ?v_6 ?v_5)))) (f4 ?v_6 ?v_0))))))))
(assert (forall ((?v0 S2) (?v1 S2)) (let ((?v_1 (f10 f11 (f10 f12 f13)))) (let ((?v_0 (f8 f9 ?v_1))) (= (f4 (f5 f6 (f10 (f14 f15 ?v0) ?v1)) ?v_0) (f10 (f14 f15 (f10 (f14 f16 (f4 (f5 f6 ?v0) ?v_0)) (f4 (f5 f6 ?v1) ?v_0))) (f10 (f14 f17 (f10 (f14 f17 (f10 f18 ?v_1)) ?v0)) ?v1)))))))
(assert (let ((?v_0 (f10 f11 (f10 f12 f13)))) (= (f28 (f10 (f14 f16 (f10 (f14 f17 (f10 f18 (f10 f11 ?v_0))) f19)) f20) (f10 (f14 f16 (f4 (f5 f6 f7) (f8 f9 ?v_0))) f20)) f1)))
(assert (forall ((?v0 S2) (?v1 S2)) (let ((?v_0 (f8 f9 (f10 f11 (f10 f12 f13))))) (= (f10 (f14 f17 (f10 (f14 f16 ?v0) ?v1)) (f10 (f14 f15 ?v0) ?v1)) (f10 (f14 f15 (f4 (f5 f6 ?v0) ?v_0)) (f4 (f5 f6 ?v1) ?v_0))))))
(assert (forall ((?v0 S2) (?v1 S2)) (let ((?v_1 (f10 f11 (f10 f12 f13)))) (let ((?v_0 (f8 f9 ?v_1))) (= (f4 (f5 f6 (f10 (f14 f16 ?v0) ?v1)) ?v_0) (f10 (f14 f16 (f10 (f14 f16 (f4 (f5 f6 ?v0) ?v_0)) (f10 (f14 f17 (f10 (f14 f17 (f10 f18 ?v_1)) ?v0)) ?v1))) (f4 (f5 f6 ?v1) ?v_0)))))))
(assert (forall ((?v0 S2) (?v1 S2)) (let ((?v_3 (f10 f12 f13))) (let ((?v_5 (f8 f9 (f10 f11 ?v_3))) (?v_1 (f10 f12 ?v_3))) (let ((?v_0 (f8 f9 ?v_1)) (?v_4 (f14 f17 (f10 f18 ?v_1))) (?v_2 (f5 f6 ?v0)) (?v_6 (f5 f6 ?v1))) (= (f4 (f5 f6 (f10 (f14 f16 ?v0) ?v1)) ?v_0) (f10 (f14 f16 (f10 (f14 f16 (f10 (f14 f16 (f4 ?v_2 ?v_0)) (f10 (f14 f17 (f10 ?v_4 (f4 ?v_2 ?v_5))) ?v1))) (f10 (f14 f17 (f10 ?v_4 ?v0)) (f4 ?v_6 ?v_5)))) (f4 ?v_6 ?v_0))))))))
(assert (= (f22 (f10 (f14 f15 (f10 (f14 f16 (f10 (f14 f17 (f10 f18 (f10 f11 (f10 f11 (f10 f12 f13))))) f19)) f20)) f20) f25) f1))
(assert (let ((?v_0 (f10 (f14 f16 (f10 (f14 f17 (f10 f18 (f10 f11 (f10 f11 (f10 f12 f13))))) f19)) f20))) (let ((?v_1 (f14 f17 ?v_0))) (= (f22 (f10 ?v_1 (f10 (f14 f15 ?v_0) f20)) (f10 ?v_1 f25)) f1))))
(assert (let ((?v_0 (f4 (f5 f6 f7) (f8 f9 (f10 f11 (f10 f12 f13)))))) (= (f10 (f14 f15 ?v_0) (f10 f18 f27)) (f10 (f14 f16 ?v_0) f20))))
(assert (let ((?v_0 (f10 f11 (f10 f12 f13)))) (= (f23 (f4 (f5 f6 f7) (f8 f9 ?v_0)) (f10 f18 f27) (f10 (f14 f16 (f10 (f14 f17 (f10 f18 (f10 f11 ?v_0))) f19)) f20)) f1)))
(assert (let ((?v_0 (f10 f11 (f10 f12 f13)))) (= (f28 (f10 (f14 f16 (f10 (f14 f17 (f10 f18 (f10 f11 ?v_0))) f19)) f20) (f10 (f14 f15 (f4 (f5 f6 f7) (f8 f9 ?v_0))) (f10 f18 f27))) f1)))
(assert (=> (forall ((?v0 S2)) (let ((?v_0 (f10 f11 (f10 f12 f13)))) (=> (= (f23 (f4 (f5 f6 ?v0) (f8 f9 ?v_0)) (f10 f18 f27) (f10 (f14 f16 (f10 (f14 f17 (f10 f18 (f10 f11 ?v_0))) f19)) f20)) f1) false))) false))
(assert (=> (forall ((?v0 S2)) (let ((?v_0 (f10 (f14 f16 (f10 (f14 f17 (f10 f18 (f10 f11 (f10 f11 (f10 f12 f13))))) f19)) f20))) (=> (and (= (f3 f21 ?v0) f1) (and (= (f22 ?v0 ?v_0) f1) (= (f23 f24 ?v0 ?v_0) f1))) false))) false))
(assert (exists ((?v0 S2)) (let ((?v_0 (f10 (f14 f16 (f10 (f14 f17 (f10 f18 (f10 f11 (f10 f11 (f10 f12 f13))))) f19)) f20))) (and (and (= (f3 f21 ?v0) f1) (and (= (f22 ?v0 ?v_0) f1) (= (f23 f24 ?v0 ?v_0) f1))) (forall ((?v1 S2)) (=> (and (= (f3 f21 ?v1) f1) (and (= (f22 ?v1 ?v_0) f1) (= (f23 f24 ?v1 ?v_0) f1))) (= ?v1 ?v0)))))))
(assert (= (f10 (f14 f29 (f10 f18 f27)) (f10 (f14 f16 (f10 (f14 f17 (f10 f18 (f10 f11 (f10 f11 (f10 f12 f13))))) f19)) f20)) f20))
(assert (= (f30 (f10 (f14 f17 (f10 (f14 f16 (f10 (f14 f17 (f10 f18 (f10 f11 (f10 f11 (f10 f12 f13))))) f19)) f20)) f25)) f1))
(assert (forall ((?v0 S2) (?v1 S2) (?v2 S4)) (=> (= (f26 ?v0) f1) (=> (= (f28 ?v0 (f4 (f5 f6 ?v1) ?v2)) f1) (= (f28 ?v0 ?v1) f1)))))
(assert (forall ((?v0 S2) (?v1 S2) (?v2 S4) (?v3 S2)) (let ((?v_0 (f4 (f5 f6 ?v0) ?v2))) (=> (= (f26 ?v0) f1) (=> (not (= (f28 ?v0 ?v1) f1)) (=> (= (f28 ?v_0 (f10 (f14 f17 ?v3) ?v1)) f1) (= (f28 ?v_0 ?v3) f1)))))))
(assert (forall ((?v0 S2) (?v1 S2) (?v2 S4) (?v3 S2)) (let ((?v_0 (f4 (f5 f6 ?v0) ?v2))) (=> (= (f26 ?v0) f1) (=> (not (= (f28 ?v0 ?v1) f1)) (=> (= (f28 ?v_0 (f10 (f14 f17 ?v1) ?v3)) f1) (= (f28 ?v_0 ?v3) f1)))))))
(assert (forall ((?v0 S2) (?v1 S2)) (=> (= (f22 f21 ?v0) f1) (=> (= (f22 f21 (f10 (f14 f17 ?v0) ?v1)) f1) (= (f22 f21 ?v1) f1)))))
(check-sat)
(exit)
